NAME : cvrp-A-U-8-8.691.tour
COMMENT : Length = 691
COMMENT : Found by LKH [Keld Helsgaun] Thu May 17 22:42:39 2018
TYPE : TOUR
DIMENSION : 31
TOUR_SECTION
1
14
12
3
16
9
5
6
2
18
29
23
30
28
17
19
22
20
25
21
24
7
11
8
15
13
10
4
26
27
31
-1
EOF
